54864 100 1100 17 9 49 12 47 44 22 27 41 22 42 24 39 32 29 39 32 29 23 22 39 36 23 18 9 30 49 21 38 6 9 8 10 20 24 8 31 47 34 21 38 11 13 31 23 38 6 38 21 12 10 37 32 6 48 20 42 5 16 37 26 17 30 36 11 15 32 17 49 23 39 9 37 6 6 48 46 21 10 7 41 11 23 43 27 45 7 12 31 49 43 30 29 15 20 19 47 34 25 33 462 79 141 362 65 335 460 254 253 124 346 367 187 476 327 481 352 233 32 89 65 435 69 173 30 321 157 66 183 297 233 232 294 149 109 228 418 496 137 89 355 388 345 85 355 52 88 332 465 107 285 131 317 45 160 168 154 406 475 321 117 116 179 231 101 261 155 173 428 277 121 53 350 445 151 285 480 157 157 196 172 42 395 162 371 375 259 66 312 397 244 73 331 73 70 207 67 422 77 231
